NAME : amz1598.95039_86039.tour
COMMENT : Cost = 95039_86039
COMMENT : Found by LKH-AMZ [Keld Helsgaun] Sun May 11 13:19:39 2025
COMMENT : TW viol.: 0 #: 0
TYPE : TOUR
DIMENSION : 130
TOUR_SECTION
80
90
76
21
70
36
42
23
33
43
10
93
119
25
1
82
66
129
86
55
92
61
99
31
64
72
45
98
106
124
19
3
48
9
114
16
38
107
47
22
89
125
94
35
118
87
32
101
37
79
109
83
100
78
17
104
65
130
44
110
71
115
127
34
49
60
96
62
14
57
81
7
2
4
77
30
88
103
91
85
111
52
20
24
51
108
123
75
116
126
63
39
113
112
13
117
28
54
102
29
15
46
12
121
95
5
105
53
18
68
56
74
58
11
128
26
40
59
120
69
50
27
97
84
41
67
6
73
122
8
-1
EOF
